c CNF file corresponding to a (partial) station packing problem.
p cnf 2192 229
1 2 3 4 5 6 7 8 9 10 11 12 13 14 0
-1 -2 0
-1 -3 0
-1 -4 0
-1 -5 0
-1 -6 0
-1 -7 0
-1 -8 0
-1 -9 0
-1 -10 0
-1 -11 0
-1 -12 0
-1 -13 0
-1 -14 0
-2 -3 0
-2 -4 0
-2 -5 0
-2 -6 0
-2 -7 0
-2 -8 0
-2 -9 0
-2 -10 0
-2 -11 0
-2 -12 0
-2 -13 0
-2 -14 0
-3 -4 0
-3 -5 0
-3 -6 0
-3 -7 0
-3 -8 0
-3 -9 0
-3 -10 0
-3 -11 0
-3 -12 0
-3 -13 0
-3 -14 0
-4 -5 0
-4 -6 0
-4 -7 0
-4 -8 0
-4 -9 0
-4 -10 0
-4 -11 0
-4 -12 0
-4 -13 0
-4 -14 0
-5 -6 0
-5 -7 0
-5 -8 0
-5 -9 0
-5 -10 0
-5 -11 0
-5 -12 0
-5 -13 0
-5 -14 0
-6 -7 0
-6 -8 0
-6 -9 0
-6 -10 0
-6 -11 0
-6 -12 0
-6 -13 0
-6 -14 0
-7 -8 0
-7 -9 0
-7 -10 0
-7 -11 0
-7 -12 0
-7 -13 0
-7 -14 0
-8 -9 0
-8 -10 0
-8 -11 0
-8 -12 0
-8 -13 0
-8 -14 0
-9 -10 0
-9 -11 0
-9 -12 0
-9 -13 0
-9 -14 0
-10 -11 0
-10 -12 0
-10 -13 0
-10 -14 0
-11 -12 0
-11 -13 0
-11 -14 0
-12 -13 0
-12 -14 0
-13 -14 0
2176 2177 2178 2179 2180 2181 2182 2183 2184 2185 2186 2187 2188 2189 2190 2191 2192 0
-2176 -2177 0
-2176 -2178 0
-2176 -2179 0
-2176 -2180 0
-2176 -2181 0
-2176 -2182 0
-2176 -2183 0
-2176 -2184 0
-2176 -2185 0
-2176 -2186 0
-2176 -2187 0
-2176 -2188 0
-2176 -2189 0
-2176 -2190 0
-2176 -2191 0
-2176 -2192 0
-2177 -2178 0
-2177 -2179 0
-2177 -2180 0
-2177 -2181 0
-2177 -2182 0
-2177 -2183 0
-2177 -2184 0
-2177 -2185 0
-2177 -2186 0
-2177 -2187 0
-2177 -2188 0
-2177 -2189 0
-2177 -2190 0
-2177 -2191 0
-2177 -2192 0
-2178 -2179 0
-2178 -2180 0
-2178 -2181 0
-2178 -2182 0
-2178 -2183 0
-2178 -2184 0
-2178 -2185 0
-2178 -2186 0
-2178 -2187 0
-2178 -2188 0
-2178 -2189 0
-2178 -2190 0
-2178 -2191 0
-2178 -2192 0
-2179 -2180 0
-2179 -2181 0
-2179 -2182 0
-2179 -2183 0
-2179 -2184 0
-2179 -2185 0
-2179 -2186 0
-2179 -2187 0
-2179 -2188 0
-2179 -2189 0
-2179 -2190 0
-2179 -2191 0
-2179 -2192 0
-2180 -2181 0
-2180 -2182 0
-2180 -2183 0
-2180 -2184 0
-2180 -2185 0
-2180 -2186 0
-2180 -2187 0
-2180 -2188 0
-2180 -2189 0
-2180 -2190 0
-2180 -2191 0
-2180 -2192 0
-2181 -2182 0
-2181 -2183 0
-2181 -2184 0
-2181 -2185 0
-2181 -2186 0
-2181 -2187 0
-2181 -2188 0
-2181 -2189 0
-2181 -2190 0
-2181 -2191 0
-2181 -2192 0
-2182 -2183 0
-2182 -2184 0
-2182 -2185 0
-2182 -2186 0
-2182 -2187 0
-2182 -2188 0
-2182 -2189 0
-2182 -2190 0
-2182 -2191 0
-2182 -2192 0
-2183 -2184 0
-2183 -2185 0
-2183 -2186 0
-2183 -2187 0
-2183 -2188 0
-2183 -2189 0
-2183 -2190 0
-2183 -2191 0
-2183 -2192 0
-2184 -2185 0
-2184 -2186 0
-2184 -2187 0
-2184 -2188 0
-2184 -2189 0
-2184 -2190 0
-2184 -2191 0
-2184 -2192 0
-2185 -2186 0
-2185 -2187 0
-2185 -2188 0
-2185 -2189 0
-2185 -2190 0
-2185 -2191 0
-2185 -2192 0
-2186 -2187 0
-2186 -2188 0
-2186 -2189 0
-2186 -2190 0
-2186 -2191 0
-2186 -2192 0
-2187 -2188 0
-2187 -2189 0
-2187 -2190 0
-2187 -2191 0
-2187 -2192 0
-2188 -2189 0
-2188 -2190 0
-2188 -2191 0
-2188 -2192 0
-2189 -2190 0
-2189 -2191 0
-2189 -2192 0
-2190 -2191 0
-2190 -2192 0
-2191 -2192 0
